xclingo version 2.0b16
Reading from /bin/text2ALM/Master/LogicPrograms/countingC/countingCNarrative5.tp.lp /bin/text2ALM/Master/Queries/query5.lp trace-rule.lp
*** ERROR: (xclingo, explainer program) too many messages.
